NAME : X-n134-k13
COMMENT : "Generated by Uchoa, Pecin, Pessoa, Poggi, Subramanian, and Vidal (2013)"
TYPE : CVRP
DIMENSION : 134
EDGE_WEIGHT_TYPE : EUC_2D
CAPACITY : 643
NODE_COORD_SECTION
1 113 195
2 377 239
3 364 39
4 306 316
5 795 18
6 560 115
7 501 147
8 704 68
9 762 62
10 357 33
11 359 353
12 314 186
13 338 303
14 522 80
15 291 58
16 735 15
17 324 12
18 275 278
19 409 32
20 279 297
21 844 27
22 447 303
23 796 4
24 735 111
25 373 461
26 385 100
27 281 378
28 793 7
29 965 64
30 347 256
31 742 75
32 339 244
33 334 391
34 323 314
35 345 69
36 295 370
37 462 240
38 426 446
39 286 335
40 374 34
41 201 153
42 356 74
43 767 236
44 450 218
45 789 61
46 467 332
47 437 293
48 357 21
49 386 207
50 389 234
51 281 344
52 312 3
53 317 163
54 582 186
55 301 411
56 822 6
57 197 437
58 386 268
59 294 74
60 425 55
61 279 81
62 382 251
63 351 385
64 701 32
65 384 214
66 866 243
67 546 186
68 815 29
69 734 57
70 377 235
71 793 31
72 392 248
73 308 314
74 396 27
75 250 345
76 903 66
77 266 264
78 580 142
79 191 288
80 408 225
81 297 283
82 733 38
83 312 293
84 180 250
85 764 45
86 351 284
87 321 318
88 208 348
89 451 423
90 365 142
91 487 175
92 267 51
93 346 248
94 575 294
95 585 346
96 199 136
97 485 24
98 542 109
99 813 117
100 442 280
101 212 192
102 344 170
103 574 426
104 325 343
105 426 272
106 349 90
107 389 302
108 769 51
109 489 165
110 174 288
111 285 419
112 434 257
113 376 210
114 400 124
115 320 191
116 304 260
117 339 138
118 390 222
119 129 47
120 376 262
121 416 240
122 688 80
123 289 193
124 270 418
125 322 311
126 303 228
127 829 13
128 315 212
129 266 239
130 326 136
131 287 298
132 319 176
133 79 221
134 323 291
PICKUP_AND_DELIVERY_SECTION
1 0 0 1000000000 0 0 0
2 0 0 1000000000 0 0 53
3 0 0 1000000000 0 73 0
4 0 0 1000000000 0 0 60
5 0 0 1000000000 0 20 0
6 0 0 1000000000 0 0 23
7 0 0 1000000000 0 3 0
8 0 0 1000000000 0 0 46
9 0 0 1000000000 0 28 0
10 0 0 1000000000 0 0 84
11 0 0 1000000000 0 72 0
12 0 0 1000000000 0 0 64
13 0 0 1000000000 0 100 0
14 0 0 1000000000 0 0 10
15 0 0 1000000000 0 74 0
16 0 0 1000000000 0 0 29
17 0 0 1000000000 0 87 0
18 0 0 1000000000 0 0 95
19 0 0 1000000000 0 51 0
20 0 0 1000000000 0 0 67
21 0 0 1000000000 0 17 0
22 0 0 1000000000 0 0 51
23 0 0 1000000000 0 33 0
24 0 0 1000000000 0 0 12
25 0 0 1000000000 0 85 0
26 0 0 1000000000 0 0 54
27 0 0 1000000000 0 79 0
28 0 0 1000000000 0 0 26
29 0 0 1000000000 0 26 0
30 0 0 1000000000 0 0 58
31 0 0 1000000000 0 35 0
32 0 0 1000000000 0 0 99
33 0 0 1000000000 0 97 0
34 0 0 1000000000 0 0 73
35 0 0 1000000000 0 93 0
36 0 0 1000000000 0 0 54
37 0 0 1000000000 0 56 0
38 0 0 1000000000 0 0 89
39 0 0 1000000000 0 86 0
40 0 0 1000000000 0 0 85
41 0 0 1000000000 0 79 0
42 0 0 1000000000 0 0 60
43 0 0 1000000000 0 9 0
44 0 0 1000000000 0 0 98
45 0 0 1000000000 0 23 0
46 0 0 1000000000 0 0 78
47 0 0 1000000000 0 53 0
48 0 0 1000000000 0 0 92
49 0 0 1000000000 0 53 0
50 0 0 1000000000 0 0 80
51 0 0 1000000000 0 54 0
52 0 0 1000000000 0 0 89
53 0 0 1000000000 0 94 0
54 0 0 1000000000 0 0 47
55 0 0 1000000000 0 73 0
56 0 0 1000000000 0 0 45
57 0 0 1000000000 0 90 0
58 0 0 1000000000 0 0 71
59 0 0 1000000000 0 65 0
60 0 0 1000000000 0 0 77
61 0 0 1000000000 0 99 0
62 0 0 1000000000 0 0 91
63 0 0 1000000000 0 91 0
64 0 0 1000000000 0 0 28
65 0 0 1000000000 0 61 0
66 0 0 1000000000 0 0 26
67 0 0 1000000000 0 7 0
68 0 0 1000000000 0 0 19
69 0 0 1000000000 0 12 0
70 0 0 1000000000 0 0 70
71 0 0 1000000000 0 12 0
72 0 0 1000000000 0 0 52
73 0 0 1000000000 0 52 0
74 0 0 1000000000 0 0 84
75 0 0 1000000000 0 89 0
76 0 0 1000000000 0 0 37
77 0 0 1000000000 0 59 0
78 0 0 1000000000 0 0 42
79 0 0 1000000000 0 99 0
80 0 0 1000000000 0 0 56
81 0 0 1000000000 0 64 0
82 0 0 1000000000 0 0 29
83 0 0 1000000000 0 54 0
84 0 0 1000000000 0 0 73
85 0 0 1000000000 0 34 0
86 0 0 1000000000 0 0 69
87 0 0 1000000000 0 95 0
88 0 0 1000000000 0 0 89
89 0 0 1000000000 0 67 0
90 0 0 1000000000 0 0 63
91 0 0 1000000000 0 74 0
92 0 0 1000000000 0 0 66
93 0 0 1000000000 0 92 0
94 0 0 1000000000 0 0 13
95 0 0 1000000000 0 34 0
96 0 0 1000000000 0 0 95
97 0 0 1000000000 0 90 0
98 0 0 1000000000 0 0 22
99 0 0 1000000000 0 16 0
100 0 0 1000000000 0 0 93
101 0 0 1000000000 0 71 0
102 0 0 1000000000 0 0 83
103 0 0 1000000000 0 49 0
104 0 0 1000000000 0 0 85
105 0 0 1000000000 0 73 0
106 0 0 1000000000 0 0 93
107 0 0 1000000000 0 59 0
108 0 0 1000000000 0 0 39
109 0 0 1000000000 0 56 0
110 0 0 1000000000 0 0 55
111 0 0 1000000000 0 55 0
112 0 0 1000000000 0 0 73
113 0 0 1000000000 0 90 0
114 0 0 1000000000 0 0 74
115 0 0 1000000000 0 95 0
116 0 0 1000000000 0 0 80
117 0 0 1000000000 0 70 0
118 0 0 1000000000 0 0 74
119 0 0 1000000000 0 77 0
120 0 0 1000000000 0 0 89
121 0 0 1000000000 0 64 0
122 0 0 1000000000 0 0 12
123 0 0 1000000000 0 74 0
124 0 0 1000000000 0 0 77
125 0 0 1000000000 0 69 0
126 0 0 1000000000 0 0 85
127 0 0 1000000000 0 40 0
128 0 0 1000000000 0 0 57
129 0 0 1000000000 0 53 0
130 0 0 1000000000 0 0 62
131 0 0 1000000000 0 76 0
132 0 0 1000000000 0 0 72
133 0 0 1000000000 0 66 0
134 0 0 1000000000 0 0 78
